n = 20;
lu = [|340, 359
      |-334, 314
      |-61, 74
      |-296, 24
      |-247, -44
      |-223, -36
      |-381, -332
      |-63, 168
      |10, 188
      |-354, -113
      |71, 227
      |97, 126
      |-110, 377
      |-105, 208
      |58, 129
      |-332, -149
      |-21, 175
      |-42, 73
      |-255, 114
      |-257, -141|];
